
Gurobi 7.5.2 (win32, Python) logging started 07/01/18 18:52:47

Academic license - for non-commercial use only

Gurobi 7.5.2 (win32, Python) logging started 07/01/18 20:31:58

Academic license - for non-commercial use only

Gurobi 7.5.2 (win32, Python) logging started 07/01/18 20:32:25

Academic license - for non-commercial use only

Gurobi 7.5.2 (win32, Python) logging started 07/01/18 20:37:22

Academic license - for non-commercial use only

Gurobi 7.5.2 (win32, Python) logging started 07/01/18 20:38:00

Academic license - for non-commercial use only

Gurobi 7.5.2 (win32, Python) logging started 07/01/18 20:39:03

Academic license - for non-commercial use only

Gurobi 7.5.2 (win32, Python) logging started 07/01/18 20:39:36

Academic license - for non-commercial use only

Gurobi 7.5.2 (win32, Python) logging started 07/01/18 20:41:48

Academic license - for non-commercial use only

Gurobi 7.5.2 (win32, Python) logging started 07/01/18 21:02:14

Academic license - for non-commercial use only

Gurobi 7.5.2 (win32, Python) logging started 07/01/18 21:09:46

Academic license - for non-commercial use only

Gurobi 7.5.2 (win32, Python) logging started 07/01/18 21:23:33

Academic license - for non-commercial use only

Gurobi 7.5.2 (win32, Python) logging started 07/01/18 21:24:58

Academic license - for non-commercial use only

Gurobi 7.5.2 (win32, Python) logging started 07/01/18 21:25:18

Academic license - for non-commercial use only

Gurobi 7.5.2 (win32, Python) logging started 07/01/18 21:25:46

Academic license - for non-commercial use only

Gurobi 7.5.2 (win32, Python) logging started 07/01/18 21:26:00

Academic license - for non-commercial use only

Gurobi 7.5.2 (win32, Python) logging started 07/01/18 21:26:09

Academic license - for non-commercial use only

Gurobi 7.5.2 (win32, Python) logging started 07/01/18 21:26:33

Academic license - for non-commercial use only

Gurobi 7.5.2 (win32, Python) logging started 07/01/18 21:28:18

Academic license - for non-commercial use only
